p edge 70 280
e 1 6
e 1 29
e 1 47
e 1 56
e 2 1
e 2 23
e 2 27
e 2 55
e 3 5
e 3 10
e 3 29
e 3 44
e 4 12
e 4 33
e 4 35
e 4 66
e 5 26
e 5 52
e 5 63
e 5 66
e 6 34
e 6 49
e 6 49
e 6 58
e 7 29
e 7 46
e 7 48
e 7 59
e 8 5
e 8 7
e 8 25
e 8 55
e 9 17
e 9 26
e 9 39
e 9 62
e 10 31
e 10 35
e 10 39
e 10 59
e 11 8
e 11 18
e 11 43
e 11 69
e 12 13
e 12 13
e 12 32
e 12 33
e 13 5
e 13 18
e 13 40
e 13 50
e 14 16
e 14 17
e 14 29
e 14 38
e 15 12
e 15 16
e 15 27
e 15 45
e 16 8
e 16 22
e 16 48
e 16 62
e 17 3
e 17 14
e 17 44
e 17 59
e 18 23
e 18 26
e 18 41
e 18 44
e 19 31
e 19 42
e 19 43
e 19 62
e 20 4
e 20 16
e 20 67
e 20 67
e 21 8
e 21 15
e 21 17
e 21 47
e 22 14
e 22 31
e 22 32
e 22 57
e 23 9
e 23 18
e 23 37
e 23 47
e 24 14
e 24 16
e 24 17
e 24 69
e 25 16
e 25 39
e 25 67
e 25 69
e 26 24
e 26 24
e 26 40
e 26 69
e 27 2
e 27 8
e 27 17
e 27 51
e 28 5
e 28 24
e 28 48
e 28 63
e 29 4
e 29 21
e 29 22
e 29 34
e 30 35
e 30 40
e 30 52
e 30 63
e 31 1
e 31 13
e 31 27
e 31 38
e 32 29
e 32 44
e 32 55
e 32 61
e 33 12
e 33 51
e 33 65
e 33 69
e 34 16
e 34 19
e 34 22
e 34 26
e 35 8
e 35 23
e 35 39
e 35 54
e 36 4
e 36 46
e 36 55
e 36 70
e 37 26
e 37 34
e 37 59
e 37 66
e 38 2
e 38 15
e 38 29
e 38 39
e 39 8
e 39 9
e 39 11
e 39 53
e 40 21
e 40 43
e 40 49
e 40 52
e 41 6
e 41 13
e 41 39
e 41 61
e 42 4
e 42 28
e 42 29
e 42 48
e 43 12
e 43 44
e 43 54
e 43 70
e 44 7
e 44 19
e 44 25
e 44 58
e 45 8
e 45 26
e 45 36
e 45 56
e 46 24
e 46 34
e 46 52
e 46 55
e 47 24
e 47 26
e 47 32
e 47 65
e 48 28
e 48 31
e 48 40
e 48 67
e 49 10
e 49 11
e 49 39
e 49 69
e 50 14
e 50 57
e 50 63
e 50 68
e 51 3
e 51 30
e 51 62
e 51 67
e 52 10
e 52 17
e 52 21
e 52 21
e 53 7
e 53 40
e 53 46
e 53 64
e 54 4
e 54 15
e 54 42
e 54 61
e 55 12
e 55 35
e 55 39
e 55 41
e 56 13
e 56 23
e 56 45
e 56 64
e 57 3
e 57 14
e 57 49
e 57 59
e 58 6
e 58 9
e 58 18
e 58 46
e 59 30
e 59 33
e 59 42
e 59 62
e 60 1
e 60 49
e 60 53
e 60 59
e 61 18
e 61 42
e 61 43
e 61 52
e 62 1
e 62 33
e 62 39
e 62 58
e 63 28
e 63 40
e 63 47
e 63 62
e 64 4
e 64 21
e 64 55
e 64 69
e 65 46
e 65 52
e 65 57
e 65 63
e 66 1
e 66 10
e 66 17
e 66 39
e 67 13
e 67 43
e 67 43
e 67 49
e 68 24
e 68 31
e 68 44
e 68 62
e 69 8
e 69 21
e 69 28
e 69 65
e 70 15
e 70 54
e 70 58
e 70 65
